NAME : kroD100-C-3-1-a__bsl_same_priority_ls__24789.tour
COMMENT : Length = 24789.000
COMMENT : Generated by compare_sota_instances.py for bsl_same_priority_ls
TYPE : TOUR
DIMENSION : 100
TOUR_SECTION
29
58
22
42
23
1
50
94
32
97
17
90
98
49
70
89
11
34
81
38
66
8
52
27
24
88
13
79
39
43
71
4
93
44
60
53
62
35
30
100
2
51
37
19
48
92
5
3
59
6
40
83
55
87
26
9
20
25
10
95
56
21
28
12
47
82
14
68
33
45
99
31
57
72
76
80
78
65
86
96
18
85
64
16
63
77
54
91
73
41
84
15
69
46
61
74
7
75
67
36
-1
EOF
